(declare-fun T_1 () Bool)
(declare-fun T_2 () Bool)
(declare-fun var_0xINPUT_308328 () String)
(assert (= T_1 (not (= "" var_0xINPUT_308328))))
(assert T_1)
(assert (= T_2 (= var_0xINPUT_308328 "array")))
(assert T_2)
(check-sat)
